unsat
(define-fun skel ((n140 Bool) (n136 Bool) (n121 Bool) (n90 Bool)) Bool (and n140 (and n136 (and n121 n90))))
0.05user 0.00system 0:00.05elapsed 100%CPU (0avgtext+0avgdata 26212maxresident)k
0inputs+8outputs (0major+1310minor)pagefaults 0swaps
